clingo version 5.4.0
Reading from merger/Adrian/merge.lp ...
Solving...
UNKNOWN

INTERRUPTED  : 1
Models       : 0+
Calls        : 1
Time         : 15943.535s (Solving: 15941.40s 1st Model: 0.00s Unsat: 0.00s)
CPU Time     : 15931.394s
